c SSAT file for PBN ISCAS/c880_distill_ISCAS/c880_miter written by probABC
p cnf 820 2172
e 1 0
e 2 0
e 3 0
e 4 0
e 5 0
e 6 0
e 7 0
e 8 0
e 9 0
e 10 0
e 11 0
e 12 0
e 13 0
e 14 0
e 15 0
e 16 0
e 17 0
e 18 0
e 19 0
e 20 0
e 21 0
e 22 0
e 23 0
e 24 0
e 25 0
e 26 0
e 27 0
e 28 0
e 29 0
e 30 0
e 31 0
e 32 0
e 33 0
e 34 0
e 35 0
e 36 0
e 37 0
e 38 0
e 39 0
e 40 0
e 41 0
e 42 0
e 43 0
e 44 0
e 45 0
e 46 0
e 47 0
e 48 0
e 49 0
e 50 0
e 51 0
e 52 0
e 53 0
e 54 0
e 55 0
e 56 0
e 57 0
e 58 0
e 59 0
e 60 0
r 0.125000 61 0
r 0.125000 62 0
r 0.125000 63 0
r 0.125000 64 0
r 0.125000 65 0
r 0.125000 66 0
r 0.125000 67 0
r 0.125000 68 0
r 0.125000 69 0
r 0.125000 70 0
r 0.125000 71 0
r 0.125000 72 0
r 0.125000 73 0
r 0.125000 74 0
r 0.125000 75 0
r 0.125000 76 0
r 0.125000 77 0
r 0.125000 78 0
r 0.125000 79 0
r 0.125000 80 0
r 0.125000 81 0
r 0.125000 82 0
r 0.125000 83 0
r 0.125000 84 0
r 0.125000 85 0
r 0.125000 86 0
r 0.125000 87 0
r 0.125000 88 0
r 0.125000 89 0
r 0.125000 90 0
r 0.125000 91 0
r 0.125000 92 0
r 0.125000 93 0
r 0.125000 94 0
r 0.125000 95 0
r 0.125000 96 0
e 98 0
e 100 0
e 101 0
e 102 0
e 103 0
e 104 0
e 105 0
e 107 0
e 108 0
e 110 0
e 111 0
e 112 0
e 113 0
e 114 0
e 116 0
e 117 0
e 118 0
e 119 0
e 120 0
e 121 0
e 124 0
e 125 0
e 126 0
e 133 0
e 134 0
e 135 0
e 136 0
e 137 0
e 138 0
e 139 0
e 140 0
e 141 0
e 142 0
e 143 0
e 144 0
e 145 0
e 146 0
e 147 0
e 148 0
e 149 0
e 150 0
e 151 0
e 152 0
e 153 0
e 154 0
e 155 0
e 156 0
e 157 0
e 158 0
e 159 0
e 160 0
e 161 0
e 162 0
e 163 0
e 164 0
e 165 0
e 166 0
e 167 0
e 168 0
e 169 0
e 170 0
e 171 0
e 172 0
e 173 0
e 174 0
e 175 0
e 176 0
e 177 0
e 178 0
e 179 0
e 180 0
e 181 0
e 182 0
e 183 0
e 184 0
e 185 0
e 186 0
e 187 0
e 188 0
e 189 0
e 190 0
e 191 0
e 192 0
e 193 0
e 194 0
e 195 0
e 196 0
e 197 0
e 198 0
e 199 0
e 200 0
e 201 0
e 202 0
e 203 0
e 204 0
e 205 0
e 206 0
e 207 0
e 208 0
e 209 0
e 210 0
e 211 0
e 212 0
e 213 0
e 214 0
e 215 0
e 216 0
e 217 0
e 218 0
e 219 0
e 220 0
e 221 0
e 222 0
e 223 0
e 224 0
e 225 0
e 226 0
e 227 0
e 228 0
e 229 0
e 230 0
e 231 0
e 232 0
e 233 0
e 234 0
e 235 0
e 236 0
e 237 0
e 238 0
e 239 0
e 240 0
e 241 0
e 242 0
e 243 0
e 244 0
e 245 0
e 246 0
e 247 0
e 248 0
e 249 0
e 250 0
e 251 0
e 252 0
e 253 0
e 254 0
e 255 0
e 256 0
e 257 0
e 258 0
e 259 0
e 260 0
e 261 0
e 262 0
e 263 0
e 264 0
e 265 0
e 266 0
e 267 0
e 268 0
e 269 0
e 270 0
e 271 0
e 272 0
e 273 0
e 274 0
e 275 0
e 276 0
e 277 0
e 278 0
e 279 0
e 280 0
e 281 0
e 282 0
e 283 0
e 284 0
e 285 0
e 286 0
e 287 0
e 288 0
e 289 0
e 290 0
e 291 0
e 292 0
e 293 0
e 294 0
e 295 0
e 296 0
e 297 0
e 298 0
e 299 0
e 300 0
e 301 0
e 302 0
e 303 0
e 304 0
e 305 0
e 306 0
e 307 0
e 308 0
e 309 0
e 310 0
e 311 0
e 312 0
e 313 0
e 314 0
e 315 0
e 316 0
e 317 0
e 318 0
e 319 0
e 320 0
e 321 0
e 322 0
e 323 0
e 324 0
e 325 0
e 326 0
e 327 0
e 328 0
e 329 0
e 330 0
e 331 0
e 332 0
e 333 0
e 334 0
e 335 0
e 336 0
e 337 0
e 338 0
e 339 0
e 340 0
e 341 0
e 342 0
e 343 0
e 344 0
e 345 0
e 346 0
e 347 0
e 348 0
e 349 0
e 350 0
e 351 0
e 352 0
e 353 0
e 354 0
e 355 0
e 356 0
e 357 0
e 358 0
e 359 0
e 360 0
e 361 0
e 362 0
e 363 0
e 364 0
e 365 0
e 366 0
e 367 0
e 368 0
e 369 0
e 370 0
e 371 0
e 372 0
e 373 0
e 374 0
e 375 0
e 376 0
e 377 0
e 378 0
e 379 0
e 380 0
e 381 0
e 382 0
e 383 0
e 384 0
e 385 0
e 386 0
e 387 0
e 388 0
e 389 0
e 390 0
e 391 0
e 392 0
e 393 0
e 394 0
e 395 0
e 396 0
e 397 0
e 398 0
e 399 0
e 400 0
e 401 0
e 402 0
e 403 0
e 404 0
e 405 0
e 406 0
e 407 0
e 408 0
e 409 0
e 410 0
e 411 0
e 412 0
e 413 0
e 414 0
e 415 0
e 416 0
e 417 0
e 418 0
e 419 0
e 420 0
e 421 0
e 422 0
e 423 0
e 424 0
e 425 0
e 426 0
e 427 0
e 428 0
e 429 0
e 430 0
e 431 0
e 432 0
e 433 0
e 434 0
e 435 0
e 436 0
e 437 0
e 438 0
e 439 0
e 440 0
e 441 0
e 442 0
e 443 0
e 444 0
e 445 0
e 446 0
e 447 0
e 448 0
e 449 0
e 450 0
e 451 0
e 452 0
e 453 0
e 454 0
e 455 0
e 456 0
e 457 0
e 458 0
e 459 0
e 460 0
e 461 0
e 462 0
e 463 0
e 464 0
e 465 0
e 466 0
e 467 0
e 468 0
e 469 0
e 470 0
e 471 0
e 472 0
e 473 0
e 474 0
e 475 0
e 476 0
e 477 0
e 478 0
e 479 0
e 480 0
e 481 0
e 482 0
e 483 0
e 484 0
e 485 0
e 486 0
e 487 0
e 488 0
e 489 0
e 490 0
e 491 0
e 492 0
e 493 0
e 494 0
e 495 0
e 496 0
e 497 0
e 498 0
e 499 0
e 500 0
e 501 0
e 502 0
e 503 0
e 504 0
e 505 0
e 506 0
e 507 0
e 508 0
e 509 0
e 510 0
e 511 0
e 512 0
e 513 0
e 514 0
e 515 0
e 516 0
e 517 0
e 518 0
e 519 0
e 520 0
e 521 0
e 522 0
e 523 0
e 524 0
e 525 0
e 526 0
e 527 0
e 528 0
e 529 0
e 530 0
e 531 0
e 532 0
e 533 0
e 534 0
e 535 0
e 536 0
e 537 0
e 538 0
e 539 0
e 540 0
e 541 0
e 542 0
e 543 0
e 544 0
e 545 0
e 546 0
e 547 0
e 548 0
e 549 0
e 550 0
e 551 0
e 552 0
e 553 0
e 554 0
e 555 0
e 556 0
e 557 0
e 558 0
e 559 0
e 560 0
e 561 0
e 562 0
e 563 0
e 564 0
e 565 0
e 566 0
e 567 0
e 568 0
e 569 0
e 570 0
e 571 0
e 572 0
e 573 0
e 574 0
e 575 0
e 576 0
e 577 0
e 578 0
e 579 0
e 580 0
e 581 0
e 582 0
e 583 0
e 584 0
e 585 0
e 586 0
e 587 0
e 588 0
e 589 0
e 590 0
e 591 0
e 592 0
e 593 0
e 594 0
e 595 0
e 596 0
e 597 0
e 598 0
e 599 0
e 600 0
e 601 0
e 602 0
e 603 0
e 604 0
e 605 0
e 606 0
e 607 0
e 608 0
e 609 0
e 610 0
e 611 0
e 612 0
e 613 0
e 614 0
e 615 0
e 616 0
e 617 0
e 618 0
e 619 0
e 620 0
e 621 0
e 622 0
e 623 0
e 624 0
e 625 0
e 626 0
e 627 0
e 628 0
e 629 0
e 630 0
e 631 0
e 632 0
e 633 0
e 634 0
e 635 0
e 636 0
e 637 0
e 638 0
e 639 0
e 640 0
e 641 0
e 642 0
e 643 0
e 644 0
e 645 0
e 646 0
e 647 0
e 648 0
e 649 0
e 650 0
e 651 0
e 652 0
e 653 0
e 654 0
e 655 0
e 656 0
e 657 0
e 658 0
e 659 0
e 660 0
e 661 0
e 662 0
e 663 0
e 664 0
e 665 0
e 666 0
e 667 0
e 668 0
e 669 0
e 670 0
e 671 0
e 672 0
e 673 0
e 674 0
e 675 0
e 676 0
e 677 0
e 678 0
e 679 0
e 680 0
e 681 0
e 682 0
e 683 0
e 684 0
e 685 0
e 686 0
e 687 0
e 688 0
e 689 0
e 690 0
e 691 0
e 692 0
e 693 0
e 694 0
e 695 0
e 696 0
e 697 0
e 698 0
e 699 0
e 700 0
e 701 0
e 702 0
e 703 0
e 704 0
e 705 0
e 706 0
e 707 0
e 708 0
e 709 0
e 710 0
e 711 0
e 712 0
e 713 0
e 714 0
e 715 0
e 716 0
e 717 0
e 718 0
e 719 0
e 720 0
e 721 0
e 722 0
e 723 0
e 724 0
e 725 0
e 726 0
e 727 0
e 728 0
e 729 0
e 730 0
e 731 0
e 732 0
e 733 0
e 734 0
e 735 0
e 736 0
e 737 0
e 738 0
e 739 0
e 740 0
e 741 0
e 742 0
e 743 0
e 744 0
e 745 0
e 746 0
e 747 0
e 748 0
e 749 0
e 750 0
e 751 0
e 752 0
e 753 0
e 754 0
e 755 0
e 756 0
e 757 0
e 758 0
e 759 0
e 760 0
e 761 0
e 762 0
e 763 0
e 764 0
e 765 0
e 766 0
e 767 0
e 768 0
e 769 0
e 770 0
e 771 0
e 772 0
e 773 0
e 774 0
e 775 0
e 776 0
e 777 0
e 778 0
e 779 0
e 780 0
e 781 0
e 782 0
e 783 0
e 784 0
e 785 0
e 786 0
e 787 0
e 788 0
e 789 0
e 790 0
e 791 0
e 792 0
e 793 0
e 794 0
e 795 0
e 796 0
e 797 0
e 798 0
e 799 0
e 800 0
e 801 0
e 802 0
e 803 0
e 804 0
e 805 0
e 806 0
e 807 0
e 808 0
e 809 0
e 810 0
e 811 0
e 812 0
e 813 0
e 814 0
e 815 0
e 816 0
e 817 0
e 818 0
e 819 0
e 820 0
e 821 0
e 822 0
e 823 0
e 824 0
e 825 0
e 826 0
e 827 0
e 828 0
e 829 0
e 830 0
e 831 0
e 832 0
e 97 0
98 -6 -16 0
-98 6 0
-98 16 0
100 -6 -7 0
-100 6 0
-100 7 0
101 -61 100 0
-101 61 0
-101 -100 0
102 61 -100 0
-102 -61 0
-102 100 0
103 101 102 0
-103 -101 0
-103 -102 0
104 -17 103 0
-104 17 0
-104 -103 0
105 -8 103 0
-105 8 0
-105 -103 0
107 -1 -2 0
-107 1 0
-107 2 0
108 -3 -107 0
-108 3 0
-108 107 0
110 -1 -5 0
-110 1 0
-110 5 0
111 -3 -110 0
-111 3 0
-111 110 0
112 -4 -111 0
-112 4 0
-112 111 0
113 105 -112 0
-113 -105 0
-113 112 0
114 -11 -16 0
-114 11 0
-114 16 0
116 -7 -11 0
-116 7 0
-116 11 0
117 -62 116 0
-117 62 0
-117 -116 0
118 62 -116 0
-118 -62 0
-118 116 0
119 117 118 0
-119 -117 0
-119 -118 0
120 -17 119 0
-120 17 0
-120 -119 0
121 -8 119 0
-121 8 0
-121 -119 0
124 -105 -112 0
-124 105 0
-124 112 0
125 -9 -110 0
-125 9 0
-125 110 0
126 -10 -108 0
-126 10 0
-126 108 0
133 -24 -25 0
-133 24 0
-133 25 0
134 24 25 0
-134 -24 0
-134 -25 0
135 133 134 0
-135 -133 0
-135 -134 0
136 -26 -27 0
-136 26 0
-136 27 0
137 26 27 0
-137 -26 0
-137 -27 0
138 136 137 0
-138 -136 0
-138 -137 0
139 135 138 0
-139 -135 0
-139 -138 0
140 -135 -138 0
-140 135 0
-140 138 0
141 139 140 0
-141 -139 0
-141 -140 0
142 -32 -141 0
-142 32 0
-142 141 0
143 32 141 0
-143 -32 0
-143 -141 0
144 142 143 0
-144 -142 0
-144 -143 0
145 -28 -29 0
-145 28 0
-145 29 0
146 28 29 0
-146 -28 0
-146 -29 0
147 -63 146 0
-147 63 0
-147 -146 0
148 63 -146 0
-148 -63 0
-148 146 0
149 147 148 0
-149 -147 0
-149 -148 0
150 145 -149 0
-150 -145 0
-150 149 0
151 -30 -31 0
-151 30 0
-151 31 0
152 30 31 0
-152 -30 0
-152 -31 0
153 151 152 0
-153 -151 0
-153 -152 0
154 150 153 0
-154 -150 0
-154 -153 0
155 -150 -153 0
-155 150 0
-155 153 0
156 -64 155 0
-156 64 0
-156 -155 0
157 64 -155 0
-157 -64 0
-157 155 0
158 156 157 0
-158 -156 0
-158 -157 0
159 154 -158 0
-159 -154 0
-159 158 0
160 -33 -159 0
-160 33 0
-160 159 0
161 33 159 0
-161 -33 0
-161 -159 0
162 160 161 0
-162 -160 0
-162 -161 0
163 144 162 0
-163 -144 0
-163 -162 0
164 -144 -162 0
-164 144 0
-164 162 0
165 163 164 0
-165 -163 0
-165 -164 0
166 -41 -42 0
-166 41 0
-166 42 0
167 -65 166 0
-167 65 0
-167 -166 0
168 65 -166 0
-168 -65 0
-168 166 0
169 167 168 0
-169 -167 0
-169 -168 0
170 41 42 0
-170 -41 0
-170 -42 0
171 -169 170 0
-171 169 0
-171 -170 0
172 -43 -44 0
-172 43 0
-172 44 0
173 43 44 0
-173 -43 0
-173 -44 0
174 172 173 0
-174 -172 0
-174 -173 0
175 171 174 0
-175 -171 0
-175 -174 0
176 -171 -174 0
-176 171 0
-176 174 0
177 175 176 0
-177 -175 0
-177 -176 0
178 -32 -177 0
-178 32 0
-178 177 0
179 -66 178 0
-179 66 0
-179 -178 0
180 66 -178 0
-180 -66 0
-180 178 0
181 179 180 0
-181 -179 0
-181 -180 0
182 32 177 0
-182 -32 0
-182 -177 0
183 -181 182 0
-183 181 0
-183 -182 0
184 -45 -46 0
-184 45 0
-184 46 0
185 45 46 0
-185 -45 0
-185 -46 0
186 -67 185 0
-186 67 0
-186 -185 0
187 67 -185 0
-187 -67 0
-187 185 0
188 186 187 0
-188 -186 0
-188 -187 0
189 184 -188 0
-189 -184 0
-189 188 0
190 -47 -48 0
-190 47 0
-190 48 0
191 47 48 0
-191 -47 0
-191 -48 0
192 190 191 0
-192 -190 0
-192 -191 0
193 189 192 0
-193 -189 0
-193 -192 0
194 -189 -192 0
-194 189 0
-194 192 0
195 -68 194 0
-195 68 0
-195 -194 0
196 68 -194 0
-196 -68 0
-196 194 0
197 195 196 0
-197 -195 0
-197 -196 0
198 193 -197 0
-198 -193 0
-198 197 0
199 -49 -198 0
-199 49 0
-199 198 0
200 49 198 0
-200 -49 0
-200 -198 0
201 199 200 0
-201 -199 0
-201 -200 0
202 -69 201 0
-202 69 0
-202 -201 0
203 69 -201 0
-203 -69 0
-203 201 0
204 202 203 0
-204 -202 0
-204 -203 0
205 183 -204 0
-205 -183 0
-205 204 0
206 -183 204 0
-206 183 0
-206 -204 0
207 205 206 0
-207 -205 0
-207 -206 0
208 -30 -50 0
-208 30 0
-208 50 0
209 -17 -98 0
-209 17 0
-209 98 0
210 -125 -209 0
-210 125 0
-210 209 0
211 -10 -210 0
-211 10 0
-211 210 0
212 60 -211 0
-212 -60 0
-212 211 0
213 -11 -40 0
-213 11 0
-213 40 0
214 -125 213 0
-214 125 0
-214 -213 0
215 -70 214 0
-215 70 0
-215 -214 0
216 70 -214 0
-216 -70 0
-216 214 0
217 215 216 0
-217 -215 0
-217 -216 0
218 -4 217 0
-218 4 0
-218 -217 0
219 -71 218 0
-219 71 0
-219 -218 0
220 71 -218 0
-220 -71 0
-220 218 0
221 219 220 0
-221 -219 0
-221 -220 0
222 -1 -221 0
-222 1 0
-222 221 0
223 -72 222 0
-223 72 0
-223 -222 0
224 72 -222 0
-224 -72 0
-224 222 0
225 223 224 0
-225 -223 0
-225 -224 0
226 -39 -225 0
-226 39 0
-226 225 0
227 4 8 0
-227 -4 0
-227 -8 0
228 -4 -8 0
-228 4 0
-228 8 0
229 227 228 0
-229 -227 0
-229 -228 0
230 -73 229 0
-230 73 0
-230 -229 0
231 73 -229 0
-231 -73 0
-231 229 0
232 230 231 0
-232 -230 0
-232 -231 0
233 -11 232 0
-233 11 0
-233 -232 0
234 -40 -233 0
-234 40 0
-234 233 0
235 -125 -234 0
-235 125 0
-235 234 0
236 -9 -107 0
-236 9 0
-236 107 0
237 -4 -236 0
-237 4 0
-237 236 0
238 -8 -114 0
-238 8 0
-238 114 0
239 -237 238 0
-239 237 0
-239 -238 0
240 235 239 0
-240 -235 0
-240 -239 0
241 -31 240 0
-241 31 0
-241 -240 0
242 226 241 0
-242 -226 0
-242 -241 0
243 212 -242 0
-243 -212 0
-243 242 0
244 48 -243 0
-244 -48 0
-244 243 0
245 -48 243 0
-245 48 0
-245 -243 0
246 244 245 0
-246 -244 0
-246 -245 0
247 58 246 0
-247 -58 0
-247 -246 0
248 -58 -246 0
-248 58 0
-248 246 0
249 247 248 0
-249 -247 0
-249 -248 0
250 -51 -249 0
-250 51 0
-250 249 0
251 208 250 0
-251 -208 0
-251 -250 0
252 -52 -246 0
-252 52 0
-252 246 0
253 -53 -245 0
-253 53 0
-253 245 0
254 252 253 0
-254 -252 0
-254 -253 0
255 -55 -59 0
-255 55 0
-255 59 0
256 -54 243 0
-256 54 0
-256 -243 0
257 -74 256 0
-257 74 0
-257 -256 0
258 74 -256 0
-258 -74 0
-258 256 0
259 257 258 0
-259 -257 0
-259 -258 0
260 255 -259 0
-260 -255 0
-260 259 0
261 -8 -11 0
-261 8 0
-261 11 0
262 -12 -261 0
-262 12 0
-262 261 0
263 -13 -262 0
-263 13 0
-263 262 0
264 -126 -263 0
-264 126 0
-264 263 0
265 -14 -264 0
-265 14 0
-265 264 0
266 -48 -265 0
-266 48 0
-266 265 0
267 -251 -254 0
-267 251 0
-267 254 0
268 -75 267 0
-268 75 0
-268 -267 0
269 75 -267 0
-269 -75 0
-269 267 0
270 268 269 0
-270 -268 0
-270 -269 0
271 -260 270 0
-271 260 0
-271 -270 0
272 266 -271 0
-272 -266 0
-272 271 0
273 -27 -50 0
-273 27 0
-273 50 0
274 -35 -225 0
-274 35 0
-274 225 0
275 -28 240 0
-275 28 0
-275 -240 0
276 274 275 0
-276 -274 0
-276 -275 0
277 212 -276 0
-277 -212 0
-277 276 0
278 45 -277 0
-278 -45 0
-278 277 0
279 -45 277 0
-279 45 0
-279 -277 0
280 278 279 0
-280 -278 0
-280 -279 0
281 -36 -225 0
-281 36 0
-281 225 0
282 -29 240 0
-282 29 0
-282 -240 0
283 -76 282 0
-283 76 0
-283 -282 0
284 76 -282 0
-284 -76 0
-284 282 0
285 283 284 0
-285 -283 0
-285 -284 0
286 281 -285 0
-286 -281 0
-286 285 0
287 212 -286 0
-287 -212 0
-287 286 0
288 -77 287 0
-288 77 0
-288 -287 0
289 77 -287 0
-289 -77 0
-289 287 0
290 288 289 0
-290 -288 0
-290 -289 0
291 -46 -290 0
-291 46 0
-291 290 0
292 46 290 0
-292 -46 0
-292 -290 0
293 -37 -225 0
-293 37 0
-293 225 0
294 -30 240 0
-294 30 0
-294 -240 0
295 293 294 0
-295 -293 0
-295 -294 0
296 212 -295 0
-296 -212 0
-296 295 0
297 -47 296 0
-297 47 0
-297 -296 0
298 -78 297 0
-298 78 0
-298 -297 0
299 78 -297 0
-299 -78 0
-299 297 0
300 298 299 0
-300 -298 0
-300 -299 0
301 292 300 0
-301 -292 0
-301 -300 0
302 47 -296 0
-302 -47 0
-302 296 0
303 292 302 0
-303 -292 0
-303 -302 0
304 -245 -303 0
-304 245 0
-304 303 0
305 244 -303 0
-305 -244 0
-305 303 0
306 -58 -305 0
-306 58 0
-306 305 0
307 291 301 0
-307 -291 0
-307 -301 0
308 304 -307 0
-308 -304 0
-308 307 0
309 306 -308 0
-309 -306 0
-309 308 0
310 280 -309 0
-310 -280 0
-310 309 0
311 -280 309 0
-311 280 0
-311 -309 0
312 310 311 0
-312 -310 0
-312 -311 0
313 -51 -312 0
-313 51 0
-313 312 0
314 273 313 0
-314 -273 0
-314 -313 0
315 -52 -280 0
-315 52 0
-315 280 0
316 -53 -279 0
-316 53 0
-316 279 0
317 315 316 0
-317 -315 0
-317 -316 0
318 -54 277 0
-318 54 0
-318 -277 0
319 -45 -265 0
-319 45 0
-319 265 0
320 318 319 0
-320 -318 0
-320 -319 0
321 -314 -317 0
-321 314 0
-321 317 0
322 -320 -321 0
-322 320 0
-322 321 0
323 -28 -50 0
-323 28 0
-323 50 0
324 291 292 0
-324 -291 0
-324 -292 0
325 -245 302 0
-325 245 0
-325 -302 0
326 244 302 0
-326 -244 0
-326 -302 0
327 -58 -326 0
-327 58 0
-327 326 0
328 -300 325 0
-328 300 0
-328 -325 0
329 327 -328 0
-329 -327 0
-329 328 0
330 324 -329 0
-330 -324 0
-330 329 0
331 -324 329 0
-331 324 0
-331 -329 0
332 330 331 0
-332 -330 0
-332 -331 0
333 -51 -332 0
-333 51 0
-333 332 0
334 323 333 0
-334 -323 0
-334 -333 0
335 -52 -324 0
-335 52 0
-335 324 0
336 -53 -291 0
-336 53 0
-336 291 0
337 335 336 0
-337 -335 0
-337 -336 0
338 -79 337 0
-338 79 0
-338 -337 0
339 79 -337 0
-339 -79 0
-339 337 0
340 338 339 0
-340 -338 0
-340 -339 0
341 -55 -56 0
-341 55 0
-341 56 0
342 -54 -290 0
-342 54 0
-342 290 0
343 -80 342 0
-343 80 0
-343 -342 0
344 80 -342 0
-344 -80 0
-344 342 0
345 343 344 0
-345 -343 0
-345 -344 0
346 341 -345 0
-346 -341 0
-346 345 0
347 -46 -265 0
-347 46 0
-347 265 0
348 -334 340 0
-348 334 0
-348 -340 0
349 -346 -348 0
-349 346 0
-349 348 0
350 347 -349 0
-350 -347 0
-350 349 0
351 -29 -50 0
-351 29 0
-351 50 0
352 -300 302 0
-352 300 0
-352 -302 0
353 -58 244 0
-353 58 0
-353 -244 0
354 -81 353 0
-354 81 0
-354 -353 0
355 81 -353 0
-355 -81 0
-355 353 0
356 354 355 0
-356 -354 0
-356 -355 0
357 245 -356 0
-357 -245 0
-357 356 0
358 352 -357 0
-358 -352 0
-358 357 0
359 -352 357 0
-359 352 0
-359 -357 0
360 358 359 0
-360 -358 0
-360 -359 0
361 -51 -360 0
-361 51 0
-361 360 0
362 351 361 0
-362 -351 0
-362 -361 0
363 -52 -352 0
-363 52 0
-363 352 0
364 -53 300 0
-364 53 0
-364 -300 0
365 -82 364 0
-365 82 0
-365 -364 0
366 82 -364 0
-366 -82 0
-366 364 0
367 365 366 0
-367 -365 0
-367 -366 0
368 363 -367 0
-368 -363 0
-368 367 0
369 -55 -57 0
-369 55 0
-369 57 0
370 -54 296 0
-370 54 0
-370 -296 0
371 369 370 0
-371 -369 0
-371 -370 0
372 -47 -265 0
-372 47 0
-372 265 0
373 -83 372 0
-373 83 0
-373 -372 0
374 83 -372 0
-374 -83 0
-374 372 0
375 373 374 0
-375 -373 0
-375 -374 0
376 -362 -368 0
-376 362 0
-376 368 0
377 -371 -376 0
-377 371 0
-377 376 0
378 -84 377 0
-378 84 0
-378 -377 0
379 84 -377 0
-379 -84 0
-379 377 0
380 378 379 0
-380 -378 0
-380 -379 0
381 -375 380 0
-381 375 0
-381 -380 0
382 -2 -34 0
-382 2 0
-382 34 0
383 -24 240 0
-383 24 0
-383 -240 0
384 382 383 0
-384 -382 0
-384 -383 0
385 -10 217 0
-385 10 0
-385 -217 0
386 -35 -385 0
-386 35 0
-386 385 0
387 -4 -125 0
-387 4 0
-387 125 0
388 -209 -387 0
-388 209 0
-388 387 0
389 60 -388 0
-389 -60 0
-389 388 0
390 386 389 0
-390 -386 0
-390 -389 0
391 -384 -390 0
-391 384 0
-391 390 0
392 -41 391 0
-392 41 0
-392 -391 0
393 -85 392 0
-393 85 0
-393 -392 0
394 85 -392 0
-394 -85 0
-394 392 0
395 393 394 0
-395 -393 0
-395 -394 0
396 -9 -34 0
-396 9 0
-396 34 0
397 -25 240 0
-397 25 0
-397 -240 0
398 396 397 0
-398 -396 0
-398 -397 0
399 -36 -385 0
-399 36 0
-399 385 0
400 389 399 0
-400 -389 0
-400 -399 0
401 -398 -400 0
-401 398 0
-401 400 0
402 -86 401 0
-402 86 0
-402 -401 0
403 86 -401 0
-403 -86 0
-403 401 0
404 402 403 0
-404 -402 0
-404 -403 0
405 -42 -404 0
-405 42 0
-405 404 0
406 42 404 0
-406 -42 0
-406 -404 0
407 -87 406 0
-407 87 0
-407 -406 0
408 87 -406 0
-408 -87 0
-408 406 0
409 407 408 0
-409 -407 0
-409 -408 0
410 -4 -34 0
-410 4 0
-410 34 0
411 -26 240 0
-411 26 0
-411 -240 0
412 410 411 0
-412 -410 0
-412 -411 0
413 -37 -385 0
-413 37 0
-413 385 0
414 389 413 0
-414 -389 0
-414 -413 0
415 -412 -414 0
-415 412 0
-415 414 0
416 -88 415 0
-416 88 0
-416 -415 0
417 88 -415 0
-417 -88 0
-417 415 0
418 416 417 0
-418 -416 0
-418 -417 0
419 -43 -418 0
-419 43 0
-419 418 0
420 -409 -419 0
-420 409 0
-420 419 0
421 43 418 0
-421 -43 0
-421 -418 0
422 -89 421 0
-422 89 0
-422 -421 0
423 89 -421 0
-423 -89 0
-423 421 0
424 422 423 0
-424 -422 0
-424 -423 0
425 -34 -38 0
-425 34 0
-425 38 0
426 -27 240 0
-426 27 0
-426 -240 0
427 425 426 0
-427 -425 0
-427 -426 0
428 -39 -385 0
-428 39 0
-428 385 0
429 389 428 0
-429 -389 0
-429 -428 0
430 -427 -429 0
-430 427 0
-430 429 0
431 -44 430 0
-431 44 0
-431 -430 0
432 -90 431 0
-432 90 0
-432 -431 0
433 90 -431 0
-433 -90 0
-433 431 0
434 432 433 0
-434 -432 0
-434 -433 0
435 -409 -424 0
-435 409 0
-435 424 0
436 -91 435 0
-436 91 0
-436 -435 0
437 91 -435 0
-437 -91 0
-437 435 0
438 436 437 0
-438 -436 0
-438 -437 0
439 434 438 0
-439 -434 0
-439 -438 0
440 44 -430 0
-440 -44 0
-440 430 0
441 278 309 0
-441 -278 0
-441 -309 0
442 279 441 0
-442 -279 0
-442 -441 0
443 438 440 0
-443 -438 0
-443 -440 0
444 442 -443 0
-444 -442 0
-444 443 0
445 405 420 0
-445 -405 0
-445 -420 0
446 439 -445 0
-446 -439 0
-446 445 0
447 444 -446 0
-447 -444 0
-447 446 0
448 -92 447 0
-448 92 0
-448 -447 0
449 92 -447 0
-449 -92 0
-449 447 0
450 448 449 0
-450 -448 0
-450 -449 0
451 41 -391 0
-451 -41 0
-451 391 0
452 -450 451 0
-452 450 0
-452 -451 0
453 -395 452 0
-453 395 0
-453 -452 0
454 -26 -50 0
-454 26 0
-454 50 0
455 -434 440 0
-455 434 0
-455 -440 0
456 -442 455 0
-456 442 0
-456 -455 0
457 442 -455 0
-457 -442 0
-457 455 0
458 456 457 0
-458 -456 0
-458 -457 0
459 -51 -458 0
-459 51 0
-459 458 0
460 454 459 0
-460 -454 0
-460 -459 0
461 -93 460 0
-461 93 0
-461 -460 0
462 93 -460 0
-462 -93 0
-462 460 0
463 461 462 0
-463 -461 0
-463 -462 0
464 -52 -455 0
-464 52 0
-464 455 0
465 -53 434 0
-465 53 0
-465 -434 0
466 464 465 0
-466 -464 0
-466 -465 0
467 -54 430 0
-467 54 0
-467 -430 0
468 -44 -265 0
-468 44 0
-468 265 0
469 467 468 0
-469 -467 0
-469 -468 0
470 463 -466 0
-470 -463 0
-470 466 0
471 -469 -470 0
-471 469 0
-471 470 0
472 -50 -60 0
-472 50 0
-472 60 0
473 -395 451 0
-473 395 0
-473 -451 0
474 450 473 0
-474 -450 0
-474 -473 0
475 -450 -473 0
-475 450 0
-475 473 0
476 474 475 0
-476 -474 0
-476 -475 0
477 -51 -476 0
-477 51 0
-477 476 0
478 472 477 0
-478 -472 0
-478 -477 0
479 -52 -473 0
-479 52 0
-479 473 0
480 -53 395 0
-480 53 0
-480 -395 0
481 479 480 0
-481 -479 0
-481 -480 0
482 -54 391 0
-482 54 0
-482 -391 0
483 -41 -265 0
-483 41 0
-483 265 0
484 482 483 0
-484 -482 0
-484 -483 0
485 -478 -481 0
-485 478 0
-485 481 0
486 -484 -485 0
-486 484 0
-486 485 0
487 -24 -50 0
-487 24 0
-487 50 0
488 405 -409 0
-488 -405 0
-488 409 0
489 -424 434 0
-489 424 0
-489 -434 0
490 -424 440 0
-490 424 0
-490 -440 0
491 442 -490 0
-491 -442 0
-491 490 0
492 419 489 0
-492 -419 0
-492 -489 0
493 491 -492 0
-493 -491 0
-493 492 0
494 488 -493 0
-494 -488 0
-494 493 0
495 -488 493 0
-495 488 0
-495 -493 0
496 494 495 0
-496 -494 0
-496 -495 0
497 -51 -496 0
-497 51 0
-497 496 0
498 487 497 0
-498 -487 0
-498 -497 0
499 -52 -488 0
-499 52 0
-499 488 0
500 -53 -405 0
-500 53 0
-500 405 0
501 499 500 0
-501 -499 0
-501 -500 0
502 -54 -404 0
-502 54 0
-502 404 0
503 -42 -265 0
-503 42 0
-503 265 0
504 502 503 0
-504 -502 0
-504 -503 0
505 -498 -501 0
-505 498 0
-505 501 0
506 -504 -505 0
-506 504 0
-506 505 0
507 -25 -50 0
-507 25 0
-507 50 0
508 419 -424 0
-508 -419 0
-508 424 0
509 440 442 0
-509 -440 0
-509 -442 0
510 -434 509 0
-510 434 0
-510 -509 0
511 508 -510 0
-511 -508 0
-511 510 0
512 -508 510 0
-512 508 0
-512 -510 0
513 511 512 0
-513 -511 0
-513 -512 0
514 -51 -513 0
-514 51 0
-514 513 0
515 -94 514 0
-515 94 0
-515 -514 0
516 94 -514 0
-516 -94 0
-516 514 0
517 515 516 0
-517 -515 0
-517 -516 0
518 507 -517 0
-518 -507 0
-518 517 0
519 -52 -508 0
-519 52 0
-519 508 0
520 -53 -419 0
-520 53 0
-520 419 0
521 519 520 0
-521 -519 0
-521 -520 0
522 -54 -418 0
-522 54 0
-522 418 0
523 -43 -265 0
-523 43 0
-523 265 0
524 -95 523 0
-524 95 0
-524 -523 0
525 95 -523 0
-525 -95 0
-525 523 0
526 524 525 0
-526 -524 0
-526 -525 0
527 522 -526 0
-527 -522 0
-527 526 0
528 -518 -521 0
-528 518 0
-528 521 0
529 -96 528 0
-529 96 0
-529 -528 0
530 96 -528 0
-530 -96 0
-530 528 0
531 529 530 0
-531 -529 0
-531 -530 0
532 -527 531 0
-532 527 0
-532 -531 0
533 -17 -100 0
-533 17 0
-533 100 0
534 -8 -100 0
-534 8 0
-534 100 0
535 -112 534 0
-535 112 0
-535 -534 0
536 -17 -116 0
-536 17 0
-536 116 0
537 -8 -116 0
-537 8 0
-537 116 0
538 -112 -534 0
-538 112 0
-538 534 0
539 145 146 0
-539 -145 0
-539 -146 0
540 153 539 0
-540 -153 0
-540 -539 0
541 -153 -539 0
-541 153 0
-541 539 0
542 540 541 0
-542 -540 0
-542 -541 0
543 -33 -542 0
-543 33 0
-543 542 0
544 33 542 0
-544 -33 0
-544 -542 0
545 543 544 0
-545 -543 0
-545 -544 0
546 144 545 0
-546 -144 0
-546 -545 0
547 -144 -545 0
-547 144 0
-547 545 0
548 546 547 0
-548 -546 0
-548 -547 0
549 166 170 0
-549 -166 0
-549 -170 0
550 174 549 0
-550 -174 0
-550 -549 0
551 -174 -549 0
-551 174 0
-551 549 0
552 550 551 0
-552 -550 0
-552 -551 0
553 -32 -552 0
-553 32 0
-553 552 0
554 32 552 0
-554 -32 0
-554 -552 0
555 553 554 0
-555 -553 0
-555 -554 0
556 184 185 0
-556 -184 0
-556 -185 0
557 192 556 0
-557 -192 0
-557 -556 0
558 -192 -556 0
-558 192 0
-558 556 0
559 557 558 0
-559 -557 0
-559 -558 0
560 -49 -559 0
-560 49 0
-560 559 0
561 49 559 0
-561 -49 0
-561 -559 0
562 560 561 0
-562 -560 0
-562 -561 0
563 555 562 0
-563 -555 0
-563 -562 0
564 -555 -562 0
-564 555 0
-564 562 0
565 563 564 0
-565 -563 0
-565 -564 0
566 -4 -214 0
-566 4 0
-566 214 0
567 -1 566 0
-567 1 0
-567 -566 0
568 -39 567 0
-568 39 0
-568 -567 0
569 -11 -229 0
-569 11 0
-569 229 0
570 -40 -569 0
-570 40 0
-570 569 0
571 -125 -570 0
-571 125 0
-571 570 0
572 239 571 0
-572 -239 0
-572 -571 0
573 -31 572 0
-573 31 0
-573 -572 0
574 568 573 0
-574 -568 0
-574 -573 0
575 212 -574 0
-575 -212 0
-575 574 0
576 48 -575 0
-576 -48 0
-576 575 0
577 -48 575 0
-577 48 0
-577 -575 0
578 576 577 0
-578 -576 0
-578 -577 0
579 58 578 0
-579 -58 0
-579 -578 0
580 -58 -578 0
-580 58 0
-580 578 0
581 579 580 0
-581 -579 0
-581 -580 0
582 -51 -581 0
-582 51 0
-582 581 0
583 208 582 0
-583 -208 0
-583 -582 0
584 -52 -578 0
-584 52 0
-584 578 0
585 -53 -577 0
-585 53 0
-585 577 0
586 584 585 0
-586 -584 0
-586 -585 0
587 -54 575 0
-587 54 0
-587 -575 0
588 255 587 0
-588 -255 0
-588 -587 0
589 -583 -586 0
-589 583 0
-589 586 0
590 -588 -589 0
-590 588 0
-590 589 0
591 266 -590 0
-591 -266 0
-591 590 0
592 -35 567 0
-592 35 0
-592 -567 0
593 -28 572 0
-593 28 0
-593 -572 0
594 592 593 0
-594 -592 0
-594 -593 0
595 212 -594 0
-595 -212 0
-595 594 0
596 45 -595 0
-596 -45 0
-596 595 0
597 -45 595 0
-597 45 0
-597 -595 0
598 596 597 0
-598 -596 0
-598 -597 0
599 -36 567 0
-599 36 0
-599 -567 0
600 -29 572 0
-600 29 0
-600 -572 0
601 599 600 0
-601 -599 0
-601 -600 0
602 212 -601 0
-602 -212 0
-602 601 0
603 -46 602 0
-603 46 0
-603 -602 0
604 46 -602 0
-604 -46 0
-604 602 0
605 -37 567 0
-605 37 0
-605 -567 0
606 -30 572 0
-606 30 0
-606 -572 0
607 605 606 0
-607 -605 0
-607 -606 0
608 212 -607 0
-608 -212 0
-608 607 0
609 -47 608 0
-609 47 0
-609 -608 0
610 604 -609 0
-610 -604 0
-610 609 0
611 47 -608 0
-611 -47 0
-611 608 0
612 604 611 0
-612 -604 0
-612 -611 0
613 -577 -612 0
-613 577 0
-613 612 0
614 576 -612 0
-614 -576 0
-614 612 0
615 -58 -614 0
-615 58 0
-615 614 0
616 603 610 0
-616 -603 0
-616 -610 0
617 613 -616 0
-617 -613 0
-617 616 0
618 615 -617 0
-618 -615 0
-618 617 0
619 598 -618 0
-619 -598 0
-619 618 0
620 -598 618 0
-620 598 0
-620 -618 0
621 619 620 0
-621 -619 0
-621 -620 0
622 -51 -621 0
-622 51 0
-622 621 0
623 273 622 0
-623 -273 0
-623 -622 0
624 -52 -598 0
-624 52 0
-624 598 0
625 -53 -597 0
-625 53 0
-625 597 0
626 624 625 0
-626 -624 0
-626 -625 0
627 -54 595 0
-627 54 0
-627 -595 0
628 319 627 0
-628 -319 0
-628 -627 0
629 -623 -626 0
-629 623 0
-629 626 0
630 -628 -629 0
-630 628 0
-630 629 0
631 603 604 0
-631 -603 0
-631 -604 0
632 -577 611 0
-632 577 0
-632 -611 0
633 576 611 0
-633 -576 0
-633 -611 0
634 -58 -633 0
-634 58 0
-634 633 0
635 609 632 0
-635 -609 0
-635 -632 0
636 634 -635 0
-636 -634 0
-636 635 0
637 631 -636 0
-637 -631 0
-637 636 0
638 -631 636 0
-638 631 0
-638 -636 0
639 637 638 0
-639 -637 0
-639 -638 0
640 -51 -639 0
-640 51 0
-640 639 0
641 323 640 0
-641 -323 0
-641 -640 0
642 -52 -631 0
-642 52 0
-642 631 0
643 -53 -603 0
-643 53 0
-643 603 0
644 642 643 0
-644 -642 0
-644 -643 0
645 -54 602 0
-645 54 0
-645 -602 0
646 341 645 0
-646 -341 0
-646 -645 0
647 -641 -644 0
-647 641 0
-647 644 0
648 -646 -647 0
-648 646 0
-648 647 0
649 347 -648 0
-649 -347 0
-649 648 0
650 609 611 0
-650 -609 0
-650 -611 0
651 -58 576 0
-651 58 0
-651 -576 0
652 577 651 0
-652 -577 0
-652 -651 0
653 650 -652 0
-653 -650 0
-653 652 0
654 -650 652 0
-654 650 0
-654 -652 0
655 653 654 0
-655 -653 0
-655 -654 0
656 -51 -655 0
-656 51 0
-656 655 0
657 351 656 0
-657 -351 0
-657 -656 0
658 -52 -650 0
-658 52 0
-658 650 0
659 -53 -609 0
-659 53 0
-659 609 0
660 658 659 0
-660 -658 0
-660 -659 0
661 -54 608 0
-661 54 0
-661 -608 0
662 369 661 0
-662 -369 0
-662 -661 0
663 -657 -660 0
-663 657 0
-663 660 0
664 -662 -663 0
-664 662 0
-664 663 0
665 372 -664 0
-665 -372 0
-665 664 0
666 -24 572 0
-666 24 0
-666 -572 0
667 382 666 0
-667 -382 0
-667 -666 0
668 -10 -214 0
-668 10 0
-668 214 0
669 -35 -668 0
-669 35 0
-669 668 0
670 389 669 0
-670 -389 0
-670 -669 0
671 -667 -670 0
-671 667 0
-671 670 0
672 -41 671 0
-672 41 0
-672 -671 0
673 -25 572 0
-673 25 0
-673 -572 0
674 396 673 0
-674 -396 0
-674 -673 0
675 -36 -668 0
-675 36 0
-675 668 0
676 389 675 0
-676 -389 0
-676 -675 0
677 -674 -676 0
-677 674 0
-677 676 0
678 -42 677 0
-678 42 0
-678 -677 0
679 42 -677 0
-679 -42 0
-679 677 0
680 -26 572 0
-680 26 0
-680 -572 0
681 410 680 0
-681 -410 0
-681 -680 0
682 -37 -668 0
-682 37 0
-682 668 0
683 389 682 0
-683 -389 0
-683 -682 0
684 -681 -683 0
-684 681 0
-684 683 0
685 -43 684 0
-685 43 0
-685 -684 0
686 679 -685 0
-686 -679 0
-686 685 0
687 43 -684 0
-687 -43 0
-687 684 0
688 -27 572 0
-688 27 0
-688 -572 0
689 425 688 0
-689 -425 0
-689 -688 0
690 -39 -668 0
-690 39 0
-690 668 0
691 389 690 0
-691 -389 0
-691 -690 0
692 -689 -691 0
-692 689 0
-692 691 0
693 -44 692 0
-693 44 0
-693 -692 0
694 679 687 0
-694 -679 0
-694 -687 0
695 -693 -694 0
-695 693 0
-695 694 0
696 44 -692 0
-696 -44 0
-696 692 0
697 596 618 0
-697 -596 0
-697 -618 0
698 597 697 0
-698 -597 0
-698 -697 0
699 -694 696 0
-699 694 0
-699 -696 0
700 698 -699 0
-700 -698 0
-700 699 0
701 678 686 0
-701 -678 0
-701 -686 0
702 695 -701 0
-702 -695 0
-702 701 0
703 700 -702 0
-703 -700 0
-703 702 0
704 41 -671 0
-704 -41 0
-704 671 0
705 703 704 0
-705 -703 0
-705 -704 0
706 672 705 0
-706 -672 0
-706 -705 0
707 693 696 0
-707 -693 0
-707 -696 0
708 -698 707 0
-708 698 0
-708 -707 0
709 698 -707 0
-709 -698 0
-709 707 0
710 708 709 0
-710 -708 0
-710 -709 0
711 -51 -710 0
-711 51 0
-711 710 0
712 454 711 0
-712 -454 0
-712 -711 0
713 -52 -707 0
-713 52 0
-713 707 0
714 -53 -693 0
-714 53 0
-714 693 0
715 713 714 0
-715 -713 0
-715 -714 0
716 -54 692 0
-716 54 0
-716 -692 0
717 468 716 0
-717 -468 0
-717 -716 0
718 -712 -715 0
-718 712 0
-718 715 0
719 -717 -718 0
-719 717 0
-719 718 0
720 672 704 0
-720 -672 0
-720 -704 0
721 -703 720 0
-721 703 0
-721 -720 0
722 703 -720 0
-722 -703 0
-722 720 0
723 721 722 0
-723 -721 0
-723 -722 0
724 -51 -723 0
-724 51 0
-724 723 0
725 472 724 0
-725 -472 0
-725 -724 0
726 -52 -720 0
-726 52 0
-726 720 0
727 -53 -672 0
-727 53 0
-727 672 0
728 726 727 0
-728 -726 0
-728 -727 0
729 -54 671 0
-729 54 0
-729 -671 0
730 483 729 0
-730 -483 0
-730 -729 0
731 -725 -728 0
-731 725 0
-731 728 0
732 -730 -731 0
-732 730 0
-732 731 0
733 678 679 0
-733 -678 0
-733 -679 0
734 687 -693 0
-734 -687 0
-734 693 0
735 687 696 0
-735 -687 0
-735 -696 0
736 698 -735 0
-736 -698 0
-736 735 0
737 685 734 0
-737 -685 0
-737 -734 0
738 736 -737 0
-738 -736 0
-738 737 0
739 733 -738 0
-739 -733 0
-739 738 0
740 -733 738 0
-740 733 0
-740 -738 0
741 739 740 0
-741 -739 0
-741 -740 0
742 -51 -741 0
-742 51 0
-742 741 0
743 487 742 0
-743 -487 0
-743 -742 0
744 -52 -733 0
-744 52 0
-744 733 0
745 -53 -678 0
-745 53 0
-745 678 0
746 744 745 0
-746 -744 0
-746 -745 0
747 -54 677 0
-747 54 0
-747 -677 0
748 503 747 0
-748 -503 0
-748 -747 0
749 -743 -746 0
-749 743 0
-749 746 0
750 -748 -749 0
-750 748 0
-750 749 0
751 685 687 0
-751 -685 0
-751 -687 0
752 696 698 0
-752 -696 0
-752 -698 0
753 693 752 0
-753 -693 0
-753 -752 0
754 751 -753 0
-754 -751 0
-754 753 0
755 -751 753 0
-755 751 0
-755 -753 0
756 754 755 0
-756 -754 0
-756 -755 0
757 -51 -756 0
-757 51 0
-757 756 0
758 507 757 0
-758 -507 0
-758 -757 0
759 -52 -751 0
-759 52 0
-759 751 0
760 -53 -685 0
-760 53 0
-760 685 0
761 759 760 0
-761 -759 0
-761 -760 0
762 -54 684 0
-762 54 0
-762 -684 0
763 523 762 0
-763 -523 0
-763 -762 0
764 -758 -761 0
-764 758 0
-764 761 0
765 -763 -764 0
-765 763 0
-765 764 0
766 104 -533 0
-766 -104 0
-766 533 0
767 -104 533 0
-767 104 0
-767 -533 0
768 766 767 0
-768 -766 0
-768 -767 0
769 105 -534 0
-769 -105 0
-769 534 0
770 -105 534 0
-770 105 0
-770 -534 0
771 769 770 0
-771 -769 0
-771 -770 0
772 -113 535 0
-772 113 0
-772 -535 0
773 113 -535 0
-773 -113 0
-773 535 0
774 772 773 0
-774 -772 0
-774 -773 0
775 -120 536 0
-775 120 0
-775 -536 0
776 120 -536 0
-776 -120 0
-776 536 0
777 775 776 0
-777 -775 0
-777 -776 0
778 -121 537 0
-778 121 0
-778 -537 0
779 121 -537 0
-779 -121 0
-779 537 0
780 778 779 0
-780 -778 0
-780 -779 0
781 -124 538 0
-781 124 0
-781 -538 0
782 124 -538 0
-782 -124 0
-782 538 0
783 781 782 0
-783 -781 0
-783 -782 0
784 165 -548 0
-784 -165 0
-784 548 0
785 -165 548 0
-785 165 0
-785 -548 0
786 784 785 0
-786 -784 0
-786 -785 0
787 207 -565 0
-787 -207 0
-787 565 0
788 -207 565 0
-788 207 0
-788 -565 0
789 787 788 0
-789 -787 0
-789 -788 0
790 -272 591 0
-790 272 0
-790 -591 0
791 272 -591 0
-791 -272 0
-791 591 0
792 790 791 0
-792 -790 0
-792 -791 0
793 -322 630 0
-793 322 0
-793 -630 0
794 322 -630 0
-794 -322 0
-794 630 0
795 793 794 0
-795 -793 0
-795 -794 0
796 -350 649 0
-796 350 0
-796 -649 0
797 350 -649 0
-797 -350 0
-797 649 0
798 796 797 0
-798 -796 0
-798 -797 0
799 -381 665 0
-799 381 0
-799 -665 0
800 381 -665 0
-800 -381 0
-800 665 0
801 799 800 0
-801 -799 0
-801 -800 0
802 -453 706 0
-802 453 0
-802 -706 0
803 453 -706 0
-803 -453 0
-803 706 0
804 802 803 0
-804 -802 0
-804 -803 0
805 -471 719 0
-805 471 0
-805 -719 0
806 471 -719 0
-806 -471 0
-806 719 0
807 805 806 0
-807 -805 0
-807 -806 0
808 -486 732 0
-808 486 0
-808 -732 0
809 486 -732 0
-809 -486 0
-809 732 0
810 808 809 0
-810 -808 0
-810 -809 0
811 -506 750 0
-811 506 0
-811 -750 0
812 506 -750 0
-812 -506 0
-812 750 0
813 811 812 0
-813 -811 0
-813 -812 0
814 -532 765 0
-814 532 0
-814 -765 0
815 532 -765 0
-815 -532 0
-815 765 0
816 814 815 0
-816 -814 0
-816 -815 0
817 -768 -771 0
-817 768 0
-817 771 0
818 -774 -817 0
-818 774 0
-818 817 0
819 -777 -780 0
-819 777 0
-819 780 0
820 -783 -819 0
-820 783 0
-820 819 0
821 -818 -820 0
-821 818 0
-821 820 0
822 -792 -795 0
-822 792 0
-822 795 0
823 -789 -822 0
-823 789 0
-823 822 0
824 -786 -823 0
-824 786 0
-824 823 0
825 -801 -804 0
-825 801 0
-825 804 0
826 -798 -825 0
-826 798 0
-826 825 0
827 -807 -810 0
-827 807 0
-827 810 0
828 -813 -816 0
-828 813 0
-828 816 0
829 -827 -828 0
-829 827 0
-829 828 0
830 -826 -829 0
-830 826 0
-830 829 0
831 -824 -830 0
-831 824 0
-831 830 0
832 -821 -831 0
-832 821 0
-832 831 0
97 832 0
-97 -832 0
97 0
